NAME : sim51.75027.tour
COMMENT : Length = 75027
COMMENT : Found by LKH [Keld Helsgaun] Wed Aug 29 08:56:35 2018
TYPE : TOUR
DIMENSION : 51
TOUR_SECTION
1
2
50
12
46
18
6
24
40
32
5
22
16
20
9
17
27
19
4
28
11
51
42
33
21
25
23
39
48
44
7
31
38
41
26
29
13
36
34
45
49
37
14
35
15
3
30
47
43
8
10
-1
EOF
